data/lp_files/pEFS/88_3.lp
\ Model foo
\ LP format - for model browsing. Use MPS format to capture full model detail.
Minimize
  z
Subject To
 allocateEach[1]: x[1,1] + x[2,1] + x[3,1] + x[4,1] + x[5,1] = 1
 allocateEach[2]: x[1,2] + x[2,2] + x[3,2] + x[4,2] + x[5,2] = 1
 allocateEach[3]: x[1,3] + x[2,3] + x[3,3] + x[4,3] + x[5,3] = 1
 allocateEach[4]: x[1,4] + x[2,4] + x[3,4] + x[4,4] + x[5,4] = 1
 allocateEach[5]: x[1,5] + x[2,5] + x[3,5] + x[4,5] + x[5,5] = 1
 allocateEach[6]: x[1,6] + x[2,6] + x[3,6] + x[4,6] + x[5,6] = 1
 allocateEach[7]: x[1,7] + x[2,7] + x[3,7] + x[4,7] + x[5,7] = 1
 allocateEach[8]: x[1,8] + x[2,8] + x[3,8] + x[4,8] + x[5,8] = 1
 allocateAllCash: cashProportion[1] + cashProportion[2] + cashProportion[3]
   + cashProportion[4] + cashProportion[5] = 1
 findWorstP[1,2]: z + 0.0403347786629021 cashProportion[1]
   - 0.0403347786629021 cashProportion[2] + 0.1117878390642331 x[1,1]
   + 0.0436220631239286 x[1,2] + 0.1479278007461934 x[1,3]
   + 0.1690027225975597 x[1,4] + 0.1722093375012605 x[1,5]
   + 0.0286376928506605 x[1,6] + 0.1884037511344157 x[1,7]
   + 0.0980740143188464 x[1,8] - 0.1117878390642331 x[2,1]
   - 0.0436220631239286 x[2,2] - 0.1479278007461934 x[2,3]
   - 0.1690027225975597 x[2,4] - 0.1722093375012605 x[2,5]
   - 0.0286376928506605 x[2,6] - 0.1884037511344157 x[2,7]
   - 0.0980740143188464 x[2,8] >= 0
 findWorstP[1,3]: z + 0.0403347786629021 cashProportion[1]
   - 0.0403347786629021 cashProportion[3] + 0.1117878390642331 x[1,1]
   + 0.0436220631239286 x[1,2] + 0.1479278007461934 x[1,3]
   + 0.1690027225975597 x[1,4] + 0.1722093375012605 x[1,5]
   + 0.0286376928506605 x[1,6] + 0.1884037511344157 x[1,7]
   + 0.0980740143188464 x[1,8] - 0.1117878390642331 x[3,1]
   - 0.0436220631239286 x[3,2] - 0.1479278007461934 x[3,3]
   - 0.1690027225975597 x[3,4] - 0.1722093375012605 x[3,5]
   - 0.0286376928506605 x[3,6] - 0.1884037511344157 x[3,7]
   - 0.0980740143188464 x[3,8] >= 0
 findWorstP[1,4]: z + 0.0403347786629021 cashProportion[1]
   - 0.0403347786629021 cashProportion[4] + 0.1117878390642331 x[1,1]
   + 0.0436220631239286 x[1,2] + 0.1479278007461934 x[1,3]
   + 0.1690027225975597 x[1,4] + 0.1722093375012605 x[1,5]
   + 0.0286376928506605 x[1,6] + 0.1884037511344157 x[1,7]
   + 0.0980740143188464 x[1,8] - 0.1117878390642331 x[4,1]
   - 0.0436220631239286 x[4,2] - 0.1479278007461934 x[4,3]
   - 0.1690027225975597 x[4,4] - 0.1722093375012605 x[4,5]
   - 0.0286376928506605 x[4,6] - 0.1884037511344157 x[4,7]
   - 0.0980740143188464 x[4,8] >= 0
 findWorstP[1,5]: z + 0.0403347786629021 cashProportion[1]
   - 0.0403347786629021 cashProportion[5] + 0.1117878390642331 x[1,1]
   + 0.0436220631239286 x[1,2] + 0.1479278007461934 x[1,3]
   + 0.1690027225975597 x[1,4] + 0.1722093375012605 x[1,5]
   + 0.0286376928506605 x[1,6] + 0.1884037511344157 x[1,7]
   + 0.0980740143188464 x[1,8] - 0.1117878390642331 x[5,1]
   - 0.0436220631239286 x[5,2] - 0.1479278007461934 x[5,3]
   - 0.1690027225975597 x[5,4] - 0.1722093375012605 x[5,5]
   - 0.0286376928506605 x[5,6] - 0.1884037511344157 x[5,7]
   - 0.0980740143188464 x[5,8] >= 0
 findWorstP[2,1]: z - 0.0438634967979647 cashProportion[1]
   + 0.0438634967979647 cashProportion[2] - 0.1449469251688744 x[1,1]
   - 0.0837573471357137 x[1,2] - 0.1399026230371085 x[1,3]
   - 0.0126765505746118 x[1,4] - 0.0123037108518291 x[1,5]
   - 0.2097552416878674 x[1,6] - 0.2189665760154399 x[1,7]
   - 0.1338275287305904 x[1,8] + 0.1449469251688744 x[2,1]
   + 0.0837573471357137 x[2,2] + 0.1399026230371085 x[2,3]
   + 0.0126765505746118 x[2,4] + 0.0123037108518291 x[2,5]
   + 0.2097552416878674 x[2,6] + 0.2189665760154399 x[2,7]
   + 0.1338275287305904 x[2,8] >= 0
 findWorstP[2,3]: z + 0.0438634967979647 cashProportion[2]
   - 0.0438634967979647 cashProportion[3] + 0.1449469251688744 x[2,1]
   + 0.0837573471357137 x[2,2] + 0.1399026230371085 x[2,3]
   + 0.0126765505746118 x[2,4] + 0.0123037108518291 x[2,5]
   + 0.2097552416878674 x[2,6] + 0.2189665760154399 x[2,7]
   + 0.1338275287305904 x[2,8] - 0.1449469251688744 x[3,1]
   - 0.0837573471357137 x[3,2] - 0.1399026230371085 x[3,3]
   - 0.0126765505746118 x[3,4] - 0.0123037108518291 x[3,5]
   - 0.2097552416878674 x[3,6] - 0.2189665760154399 x[3,7]
   - 0.1338275287305904 x[3,8] >= 0
 findWorstP[2,4]: z + 0.0438634967979647 cashProportion[2]
   - 0.0438634967979647 cashProportion[4] + 0.1449469251688744 x[2,1]
   + 0.0837573471357137 x[2,2] + 0.1399026230371085 x[2,3]
   + 0.0126765505746118 x[2,4] + 0.0123037108518291 x[2,5]
   + 0.2097552416878674 x[2,6] + 0.2189665760154399 x[2,7]
   + 0.1338275287305904 x[2,8] - 0.1449469251688744 x[4,1]
   - 0.0837573471357137 x[4,2] - 0.1399026230371085 x[4,3]
   - 0.0126765505746118 x[4,4] - 0.0123037108518291 x[4,5]
   - 0.2097552416878674 x[4,6] - 0.2189665760154399 x[4,7]
   - 0.1338275287305904 x[4,8] >= 0
 findWorstP[2,5]: z + 0.0438634967979647 cashProportion[2]
   - 0.0438634967979647 cashProportion[5] + 0.1449469251688744 x[2,1]
   + 0.0837573471357137 x[2,2] + 0.1399026230371085 x[2,3]
   + 0.0126765505746118 x[2,4] + 0.0123037108518291 x[2,5]
   + 0.2097552416878674 x[2,6] + 0.2189665760154399 x[2,7]
   + 0.1338275287305904 x[2,8] - 0.1449469251688744 x[5,1]
   - 0.0837573471357137 x[5,2] - 0.1399026230371085 x[5,3]
   - 0.0126765505746118 x[5,4] - 0.0123037108518291 x[5,5]
   - 0.2097552416878674 x[5,6] - 0.2189665760154399 x[5,7]
   - 0.1338275287305904 x[5,8] >= 0
 findWorstP[3,1]: z - 0.0525210084033613 cashProportion[1]
   + 0.0525210084033613 cashProportion[3] - 0.1445115546218487 x[1,1]
   - 0.1164128151260504 x[1,2] - 0.1959296218487395 x[1,3]
   - 0.1790966386554622 x[1,4] - 0.0792016806722689 x[1,5]
   - 0.0968224789915966 x[1,6] - 0.0393644957983193 x[1,7]
   - 0.0961397058823529 x[1,8] + 0.1445115546218487 x[3,1]
   + 0.1164128151260504 x[3,2] + 0.1959296218487395 x[3,3]
   + 0.1790966386554622 x[3,4] + 0.0792016806722689 x[3,5]
   + 0.0968224789915966 x[3,6] + 0.0393644957983193 x[3,7]
   + 0.0961397058823529 x[3,8] >= 0
 findWorstP[3,2]: z - 0.0525210084033613 cashProportion[2]
   + 0.0525210084033613 cashProportion[3] - 0.1445115546218487 x[2,1]
   - 0.1164128151260504 x[2,2] - 0.1959296218487395 x[2,3]
   - 0.1790966386554622 x[2,4] - 0.0792016806722689 x[2,5]
   - 0.0968224789915966 x[2,6] - 0.0393644957983193 x[2,7]
   - 0.0961397058823529 x[2,8] + 0.1445115546218487 x[3,1]
   + 0.1164128151260504 x[3,2] + 0.1959296218487395 x[3,3]
   + 0.1790966386554622 x[3,4] + 0.0792016806722689 x[3,5]
   + 0.0968224789915966 x[3,6] + 0.0393644957983193 x[3,7]
   + 0.0961397058823529 x[3,8] >= 0
 findWorstP[3,4]: z + 0.0525210084033613 cashProportion[3]
   - 0.0525210084033613 cashProportion[4] + 0.1445115546218487 x[3,1]
   + 0.1164128151260504 x[3,2] + 0.1959296218487395 x[3,3]
   + 0.1790966386554622 x[3,4] + 0.0792016806722689 x[3,5]
   + 0.0968224789915966 x[3,6] + 0.0393644957983193 x[3,7]
   + 0.0961397058823529 x[3,8] - 0.1445115546218487 x[4,1]
   - 0.1164128151260504 x[4,2] - 0.1959296218487395 x[4,3]
   - 0.1790966386554622 x[4,4] - 0.0792016806722689 x[4,5]
   - 0.0968224789915966 x[4,6] - 0.0393644957983193 x[4,7]
   - 0.0961397058823529 x[4,8] >= 0
 findWorstP[3,5]: z + 0.0525210084033613 cashProportion[3]
   - 0.0525210084033613 cashProportion[5] + 0.1445115546218487 x[3,1]
   + 0.1164128151260504 x[3,2] + 0.1959296218487395 x[3,3]
   + 0.1790966386554622 x[3,4] + 0.0792016806722689 x[3,5]
   + 0.0968224789915966 x[3,6] + 0.0393644957983193 x[3,7]
   + 0.0961397058823529 x[3,8] - 0.1445115546218487 x[5,1]
   - 0.1164128151260504 x[5,2] - 0.1959296218487395 x[5,3]
   - 0.1790966386554622 x[5,4] - 0.0792016806722689 x[5,5]
   - 0.0968224789915966 x[5,6] - 0.0393644957983193 x[5,7]
   - 0.0961397058823529 x[5,8] >= 0
 findWorstP[4,1]: z - 0.0518121292194503 cashProportion[1]
   + 0.0518121292194503 cashProportion[4] - 0.0686251651511619 x[1,1]
   - 0.0251547887360431 x[1,2] - 0.1073029196134815 x[1,3]
   - 0.0782104090567602 x[1,4] - 0.2244760498432683 x[1,5]
   - 0.1090904380715526 x[1,6] - 0.1140384964120101 x[1,7]
   - 0.2212896038962721 x[1,8] + 0.0686251651511619 x[4,1]
   + 0.0251547887360431 x[4,2] + 0.1073029196134815 x[4,3]
   + 0.0782104090567602 x[4,4] + 0.2244760498432683 x[4,5]
   + 0.1090904380715526 x[4,6] + 0.1140384964120101 x[4,7]
   + 0.2212896038962721 x[4,8] >= 0
 findWorstP[4,2]: z - 0.0518121292194503 cashProportion[2]
   + 0.0518121292194503 cashProportion[4] - 0.0686251651511619 x[2,1]
   - 0.0251547887360431 x[2,2] - 0.1073029196134815 x[2,3]
   - 0.0782104090567602 x[2,4] - 0.2244760498432683 x[2,5]
   - 0.1090904380715526 x[2,6] - 0.1140384964120101 x[2,7]
   - 0.2212896038962721 x[2,8] + 0.0686251651511619 x[4,1]
   + 0.0251547887360431 x[4,2] + 0.1073029196134815 x[4,3]
   + 0.0782104090567602 x[4,4] + 0.2244760498432683 x[4,5]
   + 0.1090904380715526 x[4,6] + 0.1140384964120101 x[4,7]
   + 0.2212896038962721 x[4,8] >= 0
 findWorstP[4,3]: z - 0.0518121292194503 cashProportion[3]
   + 0.0518121292194503 cashProportion[4] - 0.0686251651511619 x[3,1]
   - 0.0251547887360431 x[3,2] - 0.1073029196134815 x[3,3]
   - 0.0782104090567602 x[3,4] - 0.2244760498432683 x[3,5]
   - 0.1090904380715526 x[3,6] - 0.1140384964120101 x[3,7]
   - 0.2212896038962721 x[3,8] + 0.0686251651511619 x[4,1]
   + 0.0251547887360431 x[4,2] + 0.1073029196134815 x[4,3]
   + 0.0782104090567602 x[4,4] + 0.2244760498432683 x[4,5]
   + 0.1090904380715526 x[4,6] + 0.1140384964120101 x[4,7]
   + 0.2212896038962721 x[4,8] >= 0
 findWorstP[4,5]: z + 0.0518121292194503 cashProportion[4]
   - 0.0518121292194503 cashProportion[5] + 0.0686251651511619 x[4,1]
   + 0.0251547887360431 x[4,2] + 0.1073029196134815 x[4,3]
   + 0.0782104090567602 x[4,4] + 0.2244760498432683 x[4,5]
   + 0.1090904380715526 x[4,6] + 0.1140384964120101 x[4,7]
   + 0.2212896038962721 x[4,8] - 0.0686251651511619 x[5,1]
   - 0.0251547887360431 x[5,2] - 0.1073029196134815 x[5,3]
   - 0.0782104090567602 x[5,4] - 0.2244760498432683 x[5,5]
   - 0.1090904380715526 x[5,6] - 0.1140384964120101 x[5,7]
   - 0.2212896038962721 x[5,8] >= 0
 findWorstP[5,1]: z - 0.0409609437401438 cashProportion[1]
   + 0.0409609437401438 cashProportion[5] - 0.0903393614188871 x[1,1]
   - 0.1163085997501382 x[1,2] - 0.1863927744895242 x[1,3]
   - 0.1199746042148811 x[1,4] - 0.064390603559506 x[1,5]
   - 0.1686157249063019 x[1,6] - 0.1961209986278084 x[1,7]
   - 0.0168963892928093 x[1,8] + 0.0903393614188871 x[5,1]
   + 0.1163085997501382 x[5,2] + 0.1863927744895242 x[5,3]
   + 0.1199746042148811 x[5,4] + 0.064390603559506 x[5,5]
   + 0.1686157249063019 x[5,6] + 0.1961209986278084 x[5,7]
   + 0.0168963892928093 x[5,8] >= 0
 findWorstP[5,2]: z - 0.0409609437401438 cashProportion[2]
   + 0.0409609437401438 cashProportion[5] - 0.0903393614188871 x[2,1]
   - 0.1163085997501382 x[2,2] - 0.1863927744895242 x[2,3]
   - 0.1199746042148811 x[2,4] - 0.064390603559506 x[2,5]
   - 0.1686157249063019 x[2,6] - 0.1961209986278084 x[2,7]
   - 0.0168963892928093 x[2,8] + 0.0903393614188871 x[5,1]
   + 0.1163085997501382 x[5,2] + 0.1863927744895242 x[5,3]
   + 0.1199746042148811 x[5,4] + 0.064390603559506 x[5,5]
   + 0.1686157249063019 x[5,6] + 0.1961209986278084 x[5,7]
   + 0.0168963892928093 x[5,8] >= 0
 findWorstP[5,3]: z - 0.0409609437401438 cashProportion[3]
   + 0.0409609437401438 cashProportion[5] - 0.0903393614188871 x[3,1]
   - 0.1163085997501382 x[3,2] - 0.1863927744895242 x[3,3]
   - 0.1199746042148811 x[3,4] - 0.064390603559506 x[3,5]
   - 0.1686157249063019 x[3,6] - 0.1961209986278084 x[3,7]
   - 0.0168963892928093 x[3,8] + 0.0903393614188871 x[5,1]
   + 0.1163085997501382 x[5,2] + 0.1863927744895242 x[5,3]
   + 0.1199746042148811 x[5,4] + 0.064390603559506 x[5,5]
   + 0.1686157249063019 x[5,6] + 0.1961209986278084 x[5,7]
   + 0.0168963892928093 x[5,8] >= 0
 findWorstP[5,4]: z - 0.0409609437401438 cashProportion[4]
   + 0.0409609437401438 cashProportion[5] - 0.0903393614188871 x[4,1]
   - 0.1163085997501382 x[4,2] - 0.1863927744895242 x[4,3]
   - 0.1199746042148811 x[4,4] - 0.064390603559506 x[4,5]
   - 0.1686157249063019 x[4,6] - 0.1961209986278084 x[4,7]
   - 0.0168963892928093 x[4,8] + 0.0903393614188871 x[5,1]
   + 0.1163085997501382 x[5,2] + 0.1863927744895242 x[5,3]
   + 0.1199746042148811 x[5,4] + 0.064390603559506 x[5,5]
   + 0.1686157249063019 x[5,6] + 0.1961209986278084 x[5,7]
   + 0.0168963892928093 x[5,8] >= 0
Bounds
 z <= 1
 -infinity <= cashProportion[1] <= 1
 -infinity <= cashProportion[2] <= 1
 -infinity <= cashProportion[3] <= 1
 -infinity <= cashProportion[4] <= 1
 -infinity <= cashProportion[5] <= 1
Binaries
 x[1,1] x[1,2] x[1,3] x[1,4] x[1,5] x[1,6] x[1,7] x[1,8] x[2,1] x[2,2]
 x[2,3] x[2,4] x[2,5] x[2,6] x[2,7] x[2,8] x[3,1] x[3,2] x[3,3] x[3,4]
 x[3,5] x[3,6] x[3,7] x[3,8] x[4,1] x[4,2] x[4,3] x[4,4] x[4,5] x[4,6]
 x[4,7] x[4,8] x[5,1] x[5,2] x[5,3] x[5,4] x[5,5] x[5,6] x[5,7] x[5,8]
End
