data/mps_files/q3/88_3.mps
NAME foo
ROWS
 N  OBJ
 E  allocateEach[1]
 E  allocateEach[2]
 E  allocateEach[3]
 E  allocateEach[4]
 E  allocateEach[5]
 E  allocateEach[6]
 E  allocateEach[7]
 E  allocateEach[8]
 E  allocateAllCash
 G  findWorstP[1,2]
 G  findWorstP[1,3]
 G  findWorstP[1,4]
 G  findWorstP[1,5]
 G  findWorstP[2,1]
 G  findWorstP[2,3]
 G  findWorstP[2,4]
 G  findWorstP[2,5]
 G  findWorstP[3,1]
 G  findWorstP[3,2]
 G  findWorstP[3,4]
 G  findWorstP[3,5]
 G  findWorstP[4,1]
 G  findWorstP[4,2]
 G  findWorstP[4,3]
 G  findWorstP[4,5]
 G  findWorstP[5,1]
 G  findWorstP[5,2]
 G  findWorstP[5,3]
 G  findWorstP[5,4]
COLUMNS
    z         OBJ       1
    z         findWorstP[1,2]  1
    z         findWorstP[1,3]  1
    z         findWorstP[1,4]  1
    z         findWorstP[1,5]  1
    z         findWorstP[2,1]  1
    z         findWorstP[2,3]  1
    z         findWorstP[2,4]  1
    z         findWorstP[2,5]  1
    z         findWorstP[3,1]  1
    z         findWorstP[3,2]  1
    z         findWorstP[3,4]  1
    z         findWorstP[3,5]  1
    z         findWorstP[4,1]  1
    z         findWorstP[4,2]  1
    z         findWorstP[4,3]  1
    z         findWorstP[4,5]  1
    z         findWorstP[5,1]  1
    z         findWorstP[5,2]  1
    z         findWorstP[5,3]  1
    z         findWorstP[5,4]  1
    cashProportion[1]  allocateAllCash  1
    cashProportion[1]  findWorstP[1,2]  4.0334778662902089e-02
    cashProportion[1]  findWorstP[1,3]  4.0334778662902089e-02
    cashProportion[1]  findWorstP[1,4]  4.0334778662902089e-02
    cashProportion[1]  findWorstP[1,5]  4.0334778662902089e-02
    cashProportion[1]  findWorstP[2,1]  -4.3863496797964731e-02
    cashProportion[1]  findWorstP[3,1]  -5.2521008403361338e-02
    cashProportion[1]  findWorstP[4,1]  -5.1812129219450276e-02
    cashProportion[1]  findWorstP[5,1]  -4.0960943740143779e-02
    cashProportion[2]  allocateAllCash  1
    cashProportion[2]  findWorstP[1,2]  -4.0334778662902089e-02
    cashProportion[2]  findWorstP[2,1]  4.3863496797964731e-02
    cashProportion[2]  findWorstP[2,3]  4.3863496797964731e-02
    cashProportion[2]  findWorstP[2,4]  4.3863496797964731e-02
    cashProportion[2]  findWorstP[2,5]  4.3863496797964731e-02
    cashProportion[2]  findWorstP[3,2]  -5.2521008403361338e-02
    cashProportion[2]  findWorstP[4,2]  -5.1812129219450276e-02
    cashProportion[2]  findWorstP[5,2]  -4.0960943740143779e-02
    cashProportion[3]  allocateAllCash  1
    cashProportion[3]  findWorstP[1,3]  -4.0334778662902089e-02
    cashProportion[3]  findWorstP[2,3]  -4.3863496797964731e-02
    cashProportion[3]  findWorstP[3,1]  5.2521008403361338e-02
    cashProportion[3]  findWorstP[3,2]  5.2521008403361338e-02
    cashProportion[3]  findWorstP[3,4]  5.2521008403361338e-02
    cashProportion[3]  findWorstP[3,5]  5.2521008403361338e-02
    cashProportion[3]  findWorstP[4,3]  -5.1812129219450276e-02
    cashProportion[3]  findWorstP[5,3]  -4.0960943740143779e-02
    cashProportion[4]  allocateAllCash  1
    cashProportion[4]  findWorstP[1,4]  -4.0334778662902089e-02
    cashProportion[4]  findWorstP[2,4]  -4.3863496797964731e-02
    cashProportion[4]  findWorstP[3,4]  -5.2521008403361338e-02
    cashProportion[4]  findWorstP[4,1]  5.1812129219450276e-02
    cashProportion[4]  findWorstP[4,2]  5.1812129219450276e-02
    cashProportion[4]  findWorstP[4,3]  5.1812129219450276e-02
    cashProportion[4]  findWorstP[4,5]  5.1812129219450276e-02
    cashProportion[4]  findWorstP[5,4]  -4.0960943740143779e-02
    cashProportion[5]  allocateAllCash  1
    cashProportion[5]  findWorstP[1,5]  -4.0334778662902089e-02
    cashProportion[5]  findWorstP[2,5]  -4.3863496797964731e-02
    cashProportion[5]  findWorstP[3,5]  -5.2521008403361338e-02
    cashProportion[5]  findWorstP[4,5]  -5.1812129219450276e-02
    cashProportion[5]  findWorstP[5,1]  4.0960943740143779e-02
    cashProportion[5]  findWorstP[5,2]  4.0960943740143779e-02
    cashProportion[5]  findWorstP[5,3]  4.0960943740143779e-02
    cashProportion[5]  findWorstP[5,4]  4.0960943740143779e-02
    MARKER    'MARKER'                 'INTORG'
    x[1,1]    allocateEach[1]  1
    x[1,1]    findWorstP[1,2]  1.1178783906423313e-01
    x[1,1]    findWorstP[1,3]  1.1178783906423313e-01
    x[1,1]    findWorstP[1,4]  1.1178783906423313e-01
    x[1,1]    findWorstP[1,5]  1.1178783906423313e-01
    x[1,1]    findWorstP[2,1]  -1.4494692516887445e-01
    x[1,1]    findWorstP[3,1]  -1.4451155462184873e-01
    x[1,1]    findWorstP[4,1]  -6.8625165151161890e-02
    x[1,1]    findWorstP[5,1]  -9.0339361418887085e-02
    x[1,2]    allocateEach[2]  1
    x[1,2]    findWorstP[1,2]  4.3622063123928606e-02
    x[1,2]    findWorstP[1,3]  4.3622063123928606e-02
    x[1,2]    findWorstP[1,4]  4.3622063123928606e-02
    x[1,2]    findWorstP[1,5]  4.3622063123928606e-02
    x[1,2]    findWorstP[2,1]  -8.3757347135713658e-02
    x[1,2]    findWorstP[3,1]  -1.1641281512605041e-01
    x[1,2]    findWorstP[4,1]  -2.5154788736043109e-02
    x[1,2]    findWorstP[5,1]  -1.1630859975013824e-01
    x[1,3]    allocateEach[3]  1
    x[1,3]    findWorstP[1,2]  1.4792780074619341e-01
    x[1,3]    findWorstP[1,3]  1.4792780074619341e-01
    x[1,3]    findWorstP[1,4]  1.4792780074619341e-01
    x[1,3]    findWorstP[1,5]  1.4792780074619341e-01
    x[1,3]    findWorstP[2,1]  -1.3990262303710851e-01
    x[1,3]    findWorstP[3,1]  -1.9592962184873947e-01
    x[1,3]    findWorstP[4,1]  -1.0730291961348153e-01
    x[1,3]    findWorstP[5,1]  -1.8639277448952424e-01
    x[1,4]    allocateEach[4]  1
    x[1,4]    findWorstP[1,2]  1.6900272259755975e-01
    x[1,4]    findWorstP[1,3]  1.6900272259755975e-01
    x[1,4]    findWorstP[1,4]  1.6900272259755975e-01
    x[1,4]    findWorstP[1,5]  1.6900272259755975e-01
    x[1,4]    findWorstP[2,1]  -1.2676550574611806e-02
    x[1,4]    findWorstP[3,1]  -1.7909663865546216e-01
    x[1,4]    findWorstP[4,1]  -7.8210409056760188e-02
    x[1,4]    findWorstP[5,1]  -1.1997460421488111e-01
    x[1,5]    allocateEach[5]  1
    x[1,5]    findWorstP[1,2]  1.7220933750126047e-01
    x[1,5]    findWorstP[1,3]  1.7220933750126047e-01
    x[1,5]    findWorstP[1,4]  1.7220933750126047e-01
    x[1,5]    findWorstP[1,5]  1.7220933750126047e-01
    x[1,5]    findWorstP[2,1]  -1.2303710851829106e-02
    x[1,5]    findWorstP[3,1]  -7.9201680672268890e-02
    x[1,5]    findWorstP[4,1]  -2.2447604984326833e-01
    x[1,5]    findWorstP[5,1]  -6.4390603559506016e-02
    x[1,6]    allocateEach[6]  1
    x[1,6]    findWorstP[1,2]  2.8637692850660479e-02
    x[1,6]    findWorstP[1,3]  2.8637692850660479e-02
    x[1,6]    findWorstP[1,4]  2.8637692850660479e-02
    x[1,6]    findWorstP[1,5]  2.8637692850660479e-02
    x[1,6]    findWorstP[2,1]  -2.0975524168786736e-01
    x[1,6]    findWorstP[3,1]  -9.6822478991596628e-02
    x[1,6]    findWorstP[4,1]  -1.0909043807155255e-01
    x[1,6]    findWorstP[5,1]  -1.6861572490630186e-01
    x[1,7]    allocateEach[7]  1
    x[1,7]    findWorstP[1,2]  1.8840375113441565e-01
    x[1,7]    findWorstP[1,3]  1.8840375113441565e-01
    x[1,7]    findWorstP[1,4]  1.8840375113441565e-01
    x[1,7]    findWorstP[1,5]  1.8840375113441565e-01
    x[1,7]    findWorstP[2,1]  -2.1896657601543992e-01
    x[1,7]    findWorstP[3,1]  -3.9364495798319320e-02
    x[1,7]    findWorstP[4,1]  -1.1403849641201005e-01
    x[1,7]    findWorstP[5,1]  -1.9612099862780838e-01
    x[1,8]    allocateEach[8]  1
    x[1,8]    findWorstP[1,2]  9.8074014318846423e-02
    x[1,8]    findWorstP[1,3]  9.8074014318846423e-02
    x[1,8]    findWorstP[1,4]  9.8074014318846423e-02
    x[1,8]    findWorstP[1,5]  9.8074014318846423e-02
    x[1,8]    findWorstP[2,1]  -1.3382752873059039e-01
    x[1,8]    findWorstP[3,1]  -9.6139705882352919e-02
    x[1,8]    findWorstP[4,1]  -2.2128960389627211e-01
    x[1,8]    findWorstP[5,1]  -1.6896389292809306e-02
    x[2,1]    allocateEach[1]  1
    x[2,1]    findWorstP[1,2]  -1.1178783906423313e-01
    x[2,1]    findWorstP[2,1]  1.4494692516887445e-01
    x[2,1]    findWorstP[2,3]  1.4494692516887445e-01
    x[2,1]    findWorstP[2,4]  1.4494692516887445e-01
    x[2,1]    findWorstP[2,5]  1.4494692516887445e-01
    x[2,1]    findWorstP[3,2]  -1.4451155462184873e-01
    x[2,1]    findWorstP[4,2]  -6.8625165151161890e-02
    x[2,1]    findWorstP[5,2]  -9.0339361418887085e-02
    x[2,2]    allocateEach[2]  1
    x[2,2]    findWorstP[1,2]  -4.3622063123928606e-02
    x[2,2]    findWorstP[2,1]  8.3757347135713658e-02
    x[2,2]    findWorstP[2,3]  8.3757347135713658e-02
    x[2,2]    findWorstP[2,4]  8.3757347135713658e-02
    x[2,2]    findWorstP[2,5]  8.3757347135713658e-02
    x[2,2]    findWorstP[3,2]  -1.1641281512605041e-01
    x[2,2]    findWorstP[4,2]  -2.5154788736043109e-02
    x[2,2]    findWorstP[5,2]  -1.1630859975013824e-01
    x[2,3]    allocateEach[3]  1
    x[2,3]    findWorstP[1,2]  -1.4792780074619341e-01
    x[2,3]    findWorstP[2,1]  1.3990262303710851e-01
    x[2,3]    findWorstP[2,3]  1.3990262303710851e-01
    x[2,3]    findWorstP[2,4]  1.3990262303710851e-01
    x[2,3]    findWorstP[2,5]  1.3990262303710851e-01
    x[2,3]    findWorstP[3,2]  -1.9592962184873947e-01
    x[2,3]    findWorstP[4,2]  -1.0730291961348153e-01
    x[2,3]    findWorstP[5,2]  -1.8639277448952424e-01
    x[2,4]    allocateEach[4]  1
    x[2,4]    findWorstP[1,2]  -1.6900272259755975e-01
    x[2,4]    findWorstP[2,1]  1.2676550574611806e-02
    x[2,4]    findWorstP[2,3]  1.2676550574611806e-02
    x[2,4]    findWorstP[2,4]  1.2676550574611806e-02
    x[2,4]    findWorstP[2,5]  1.2676550574611806e-02
    x[2,4]    findWorstP[3,2]  -1.7909663865546216e-01
    x[2,4]    findWorstP[4,2]  -7.8210409056760188e-02
    x[2,4]    findWorstP[5,2]  -1.1997460421488111e-01
    x[2,5]    allocateEach[5]  1
    x[2,5]    findWorstP[1,2]  -1.7220933750126047e-01
    x[2,5]    findWorstP[2,1]  1.2303710851829106e-02
    x[2,5]    findWorstP[2,3]  1.2303710851829106e-02
    x[2,5]    findWorstP[2,4]  1.2303710851829106e-02
    x[2,5]    findWorstP[2,5]  1.2303710851829106e-02
    x[2,5]    findWorstP[3,2]  -7.9201680672268890e-02
    x[2,5]    findWorstP[4,2]  -2.2447604984326833e-01
    x[2,5]    findWorstP[5,2]  -6.4390603559506016e-02
    x[2,6]    allocateEach[6]  1
    x[2,6]    findWorstP[1,2]  -2.8637692850660479e-02
    x[2,6]    findWorstP[2,1]  2.0975524168786736e-01
    x[2,6]    findWorstP[2,3]  2.0975524168786736e-01
    x[2,6]    findWorstP[2,4]  2.0975524168786736e-01
    x[2,6]    findWorstP[2,5]  2.0975524168786736e-01
    x[2,6]    findWorstP[3,2]  -9.6822478991596628e-02
    x[2,6]    findWorstP[4,2]  -1.0909043807155255e-01
    x[2,6]    findWorstP[5,2]  -1.6861572490630186e-01
    x[2,7]    allocateEach[7]  1
    x[2,7]    findWorstP[1,2]  -1.8840375113441565e-01
    x[2,7]    findWorstP[2,1]  2.1896657601543992e-01
    x[2,7]    findWorstP[2,3]  2.1896657601543992e-01
    x[2,7]    findWorstP[2,4]  2.1896657601543992e-01
    x[2,7]    findWorstP[2,5]  2.1896657601543992e-01
    x[2,7]    findWorstP[3,2]  -3.9364495798319320e-02
    x[2,7]    findWorstP[4,2]  -1.1403849641201005e-01
    x[2,7]    findWorstP[5,2]  -1.9612099862780838e-01
    x[2,8]    allocateEach[8]  1
    x[2,8]    findWorstP[1,2]  -9.8074014318846423e-02
    x[2,8]    findWorstP[2,1]  1.3382752873059039e-01
    x[2,8]    findWorstP[2,3]  1.3382752873059039e-01
    x[2,8]    findWorstP[2,4]  1.3382752873059039e-01
    x[2,8]    findWorstP[2,5]  1.3382752873059039e-01
    x[2,8]    findWorstP[3,2]  -9.6139705882352919e-02
    x[2,8]    findWorstP[4,2]  -2.2128960389627211e-01
    x[2,8]    findWorstP[5,2]  -1.6896389292809306e-02
    x[3,1]    allocateEach[1]  1
    x[3,1]    findWorstP[1,3]  -1.1178783906423313e-01
    x[3,1]    findWorstP[2,3]  -1.4494692516887445e-01
    x[3,1]    findWorstP[3,1]  1.4451155462184873e-01
    x[3,1]    findWorstP[3,2]  1.4451155462184873e-01
    x[3,1]    findWorstP[3,4]  1.4451155462184873e-01
    x[3,1]    findWorstP[3,5]  1.4451155462184873e-01
    x[3,1]    findWorstP[4,3]  -6.8625165151161890e-02
    x[3,1]    findWorstP[5,3]  -9.0339361418887085e-02
    x[3,2]    allocateEach[2]  1
    x[3,2]    findWorstP[1,3]  -4.3622063123928606e-02
    x[3,2]    findWorstP[2,3]  -8.3757347135713658e-02
    x[3,2]    findWorstP[3,1]  1.1641281512605041e-01
    x[3,2]    findWorstP[3,2]  1.1641281512605041e-01
    x[3,2]    findWorstP[3,4]  1.1641281512605041e-01
    x[3,2]    findWorstP[3,5]  1.1641281512605041e-01
    x[3,2]    findWorstP[4,3]  -2.5154788736043109e-02
    x[3,2]    findWorstP[5,3]  -1.1630859975013824e-01
    x[3,3]    allocateEach[3]  1
    x[3,3]    findWorstP[1,3]  -1.4792780074619341e-01
    x[3,3]    findWorstP[2,3]  -1.3990262303710851e-01
    x[3,3]    findWorstP[3,1]  1.9592962184873947e-01
    x[3,3]    findWorstP[3,2]  1.9592962184873947e-01
    x[3,3]    findWorstP[3,4]  1.9592962184873947e-01
    x[3,3]    findWorstP[3,5]  1.9592962184873947e-01
    x[3,3]    findWorstP[4,3]  -1.0730291961348153e-01
    x[3,3]    findWorstP[5,3]  -1.8639277448952424e-01
    x[3,4]    allocateEach[4]  1
    x[3,4]    findWorstP[1,3]  -1.6900272259755975e-01
    x[3,4]    findWorstP[2,3]  -1.2676550574611806e-02
    x[3,4]    findWorstP[3,1]  1.7909663865546216e-01
    x[3,4]    findWorstP[3,2]  1.7909663865546216e-01
    x[3,4]    findWorstP[3,4]  1.7909663865546216e-01
    x[3,4]    findWorstP[3,5]  1.7909663865546216e-01
    x[3,4]    findWorstP[4,3]  -7.8210409056760188e-02
    x[3,4]    findWorstP[5,3]  -1.1997460421488111e-01
    x[3,5]    allocateEach[5]  1
    x[3,5]    findWorstP[1,3]  -1.7220933750126047e-01
    x[3,5]    findWorstP[2,3]  -1.2303710851829106e-02
    x[3,5]    findWorstP[3,1]  7.9201680672268890e-02
    x[3,5]    findWorstP[3,2]  7.9201680672268890e-02
    x[3,5]    findWorstP[3,4]  7.9201680672268890e-02
    x[3,5]    findWorstP[3,5]  7.9201680672268890e-02
    x[3,5]    findWorstP[4,3]  -2.2447604984326833e-01
    x[3,5]    findWorstP[5,3]  -6.4390603559506016e-02
    x[3,6]    allocateEach[6]  1
    x[3,6]    findWorstP[1,3]  -2.8637692850660479e-02
    x[3,6]    findWorstP[2,3]  -2.0975524168786736e-01
    x[3,6]    findWorstP[3,1]  9.6822478991596628e-02
    x[3,6]    findWorstP[3,2]  9.6822478991596628e-02
    x[3,6]    findWorstP[3,4]  9.6822478991596628e-02
    x[3,6]    findWorstP[3,5]  9.6822478991596628e-02
    x[3,6]    findWorstP[4,3]  -1.0909043807155255e-01
    x[3,6]    findWorstP[5,3]  -1.6861572490630186e-01
    x[3,7]    allocateEach[7]  1
    x[3,7]    findWorstP[1,3]  -1.8840375113441565e-01
    x[3,7]    findWorstP[2,3]  -2.1896657601543992e-01
    x[3,7]    findWorstP[3,1]  3.9364495798319320e-02
    x[3,7]    findWorstP[3,2]  3.9364495798319320e-02
    x[3,7]    findWorstP[3,4]  3.9364495798319320e-02
    x[3,7]    findWorstP[3,5]  3.9364495798319320e-02
    x[3,7]    findWorstP[4,3]  -1.1403849641201005e-01
    x[3,7]    findWorstP[5,3]  -1.9612099862780838e-01
    x[3,8]    allocateEach[8]  1
    x[3,8]    findWorstP[1,3]  -9.8074014318846423e-02
    x[3,8]    findWorstP[2,3]  -1.3382752873059039e-01
    x[3,8]    findWorstP[3,1]  9.6139705882352919e-02
    x[3,8]    findWorstP[3,2]  9.6139705882352919e-02
    x[3,8]    findWorstP[3,4]  9.6139705882352919e-02
    x[3,8]    findWorstP[3,5]  9.6139705882352919e-02
    x[3,8]    findWorstP[4,3]  -2.2128960389627211e-01
    x[3,8]    findWorstP[5,3]  -1.6896389292809306e-02
    x[4,1]    allocateEach[1]  1
    x[4,1]    findWorstP[1,4]  -1.1178783906423313e-01
    x[4,1]    findWorstP[2,4]  -1.4494692516887445e-01
    x[4,1]    findWorstP[3,4]  -1.4451155462184873e-01
    x[4,1]    findWorstP[4,1]  6.8625165151161890e-02
    x[4,1]    findWorstP[4,2]  6.8625165151161890e-02
    x[4,1]    findWorstP[4,3]  6.8625165151161890e-02
    x[4,1]    findWorstP[4,5]  6.8625165151161890e-02
    x[4,1]    findWorstP[5,4]  -9.0339361418887085e-02
    x[4,2]    allocateEach[2]  1
    x[4,2]    findWorstP[1,4]  -4.3622063123928606e-02
    x[4,2]    findWorstP[2,4]  -8.3757347135713658e-02
    x[4,2]    findWorstP[3,4]  -1.1641281512605041e-01
    x[4,2]    findWorstP[4,1]  2.5154788736043109e-02
    x[4,2]    findWorstP[4,2]  2.5154788736043109e-02
    x[4,2]    findWorstP[4,3]  2.5154788736043109e-02
    x[4,2]    findWorstP[4,5]  2.5154788736043109e-02
    x[4,2]    findWorstP[5,4]  -1.1630859975013824e-01
    x[4,3]    allocateEach[3]  1
    x[4,3]    findWorstP[1,4]  -1.4792780074619341e-01
    x[4,3]    findWorstP[2,4]  -1.3990262303710851e-01
    x[4,3]    findWorstP[3,4]  -1.9592962184873947e-01
    x[4,3]    findWorstP[4,1]  1.0730291961348153e-01
    x[4,3]    findWorstP[4,2]  1.0730291961348153e-01
    x[4,3]    findWorstP[4,3]  1.0730291961348153e-01
    x[4,3]    findWorstP[4,5]  1.0730291961348153e-01
    x[4,3]    findWorstP[5,4]  -1.8639277448952424e-01
    x[4,4]    allocateEach[4]  1
    x[4,4]    findWorstP[1,4]  -1.6900272259755975e-01
    x[4,4]    findWorstP[2,4]  -1.2676550574611806e-02
    x[4,4]    findWorstP[3,4]  -1.7909663865546216e-01
    x[4,4]    findWorstP[4,1]  7.8210409056760188e-02
    x[4,4]    findWorstP[4,2]  7.8210409056760188e-02
    x[4,4]    findWorstP[4,3]  7.8210409056760188e-02
    x[4,4]    findWorstP[4,5]  7.8210409056760188e-02
    x[4,4]    findWorstP[5,4]  -1.1997460421488111e-01
    x[4,5]    allocateEach[5]  1
    x[4,5]    findWorstP[1,4]  -1.7220933750126047e-01
    x[4,5]    findWorstP[2,4]  -1.2303710851829106e-02
    x[4,5]    findWorstP[3,4]  -7.9201680672268890e-02
    x[4,5]    findWorstP[4,1]  2.2447604984326833e-01
    x[4,5]    findWorstP[4,2]  2.2447604984326833e-01
    x[4,5]    findWorstP[4,3]  2.2447604984326833e-01
    x[4,5]    findWorstP[4,5]  2.2447604984326833e-01
    x[4,5]    findWorstP[5,4]  -6.4390603559506016e-02
    x[4,6]    allocateEach[6]  1
    x[4,6]    findWorstP[1,4]  -2.8637692850660479e-02
    x[4,6]    findWorstP[2,4]  -2.0975524168786736e-01
    x[4,6]    findWorstP[3,4]  -9.6822478991596628e-02
    x[4,6]    findWorstP[4,1]  1.0909043807155255e-01
    x[4,6]    findWorstP[4,2]  1.0909043807155255e-01
    x[4,6]    findWorstP[4,3]  1.0909043807155255e-01
    x[4,6]    findWorstP[4,5]  1.0909043807155255e-01
    x[4,6]    findWorstP[5,4]  -1.6861572490630186e-01
    x[4,7]    allocateEach[7]  1
    x[4,7]    findWorstP[1,4]  -1.8840375113441565e-01
    x[4,7]    findWorstP[2,4]  -2.1896657601543992e-01
    x[4,7]    findWorstP[3,4]  -3.9364495798319320e-02
    x[4,7]    findWorstP[4,1]  1.1403849641201005e-01
    x[4,7]    findWorstP[4,2]  1.1403849641201005e-01
    x[4,7]    findWorstP[4,3]  1.1403849641201005e-01
    x[4,7]    findWorstP[4,5]  1.1403849641201005e-01
    x[4,7]    findWorstP[5,4]  -1.9612099862780838e-01
    x[4,8]    allocateEach[8]  1
    x[4,8]    findWorstP[1,4]  -9.8074014318846423e-02
    x[4,8]    findWorstP[2,4]  -1.3382752873059039e-01
    x[4,8]    findWorstP[3,4]  -9.6139705882352919e-02
    x[4,8]    findWorstP[4,1]  2.2128960389627211e-01
    x[4,8]    findWorstP[4,2]  2.2128960389627211e-01
    x[4,8]    findWorstP[4,3]  2.2128960389627211e-01
    x[4,8]    findWorstP[4,5]  2.2128960389627211e-01
    x[4,8]    findWorstP[5,4]  -1.6896389292809306e-02
    x[5,1]    allocateEach[1]  1
    x[5,1]    findWorstP[1,5]  -1.1178783906423313e-01
    x[5,1]    findWorstP[2,5]  -1.4494692516887445e-01
    x[5,1]    findWorstP[3,5]  -1.4451155462184873e-01
    x[5,1]    findWorstP[4,5]  -6.8625165151161890e-02
    x[5,1]    findWorstP[5,1]  9.0339361418887085e-02
    x[5,1]    findWorstP[5,2]  9.0339361418887085e-02
    x[5,1]    findWorstP[5,3]  9.0339361418887085e-02
    x[5,1]    findWorstP[5,4]  9.0339361418887085e-02
    x[5,2]    allocateEach[2]  1
    x[5,2]    findWorstP[1,5]  -4.3622063123928606e-02
    x[5,2]    findWorstP[2,5]  -8.3757347135713658e-02
    x[5,2]    findWorstP[3,5]  -1.1641281512605041e-01
    x[5,2]    findWorstP[4,5]  -2.5154788736043109e-02
    x[5,2]    findWorstP[5,1]  1.1630859975013824e-01
    x[5,2]    findWorstP[5,2]  1.1630859975013824e-01
    x[5,2]    findWorstP[5,3]  1.1630859975013824e-01
    x[5,2]    findWorstP[5,4]  1.1630859975013824e-01
    x[5,3]    allocateEach[3]  1
    x[5,3]    findWorstP[1,5]  -1.4792780074619341e-01
    x[5,3]    findWorstP[2,5]  -1.3990262303710851e-01
    x[5,3]    findWorstP[3,5]  -1.9592962184873947e-01
    x[5,3]    findWorstP[4,5]  -1.0730291961348153e-01
    x[5,3]    findWorstP[5,1]  1.8639277448952424e-01
    x[5,3]    findWorstP[5,2]  1.8639277448952424e-01
    x[5,3]    findWorstP[5,3]  1.8639277448952424e-01
    x[5,3]    findWorstP[5,4]  1.8639277448952424e-01
    x[5,4]    allocateEach[4]  1
    x[5,4]    findWorstP[1,5]  -1.6900272259755975e-01
    x[5,4]    findWorstP[2,5]  -1.2676550574611806e-02
    x[5,4]    findWorstP[3,5]  -1.7909663865546216e-01
    x[5,4]    findWorstP[4,5]  -7.8210409056760188e-02
    x[5,4]    findWorstP[5,1]  1.1997460421488111e-01
    x[5,4]    findWorstP[5,2]  1.1997460421488111e-01
    x[5,4]    findWorstP[5,3]  1.1997460421488111e-01
    x[5,4]    findWorstP[5,4]  1.1997460421488111e-01
    x[5,5]    allocateEach[5]  1
    x[5,5]    findWorstP[1,5]  -1.7220933750126047e-01
    x[5,5]    findWorstP[2,5]  -1.2303710851829106e-02
    x[5,5]    findWorstP[3,5]  -7.9201680672268890e-02
    x[5,5]    findWorstP[4,5]  -2.2447604984326833e-01
    x[5,5]    findWorstP[5,1]  6.4390603559506016e-02
    x[5,5]    findWorstP[5,2]  6.4390603559506016e-02
    x[5,5]    findWorstP[5,3]  6.4390603559506016e-02
    x[5,5]    findWorstP[5,4]  6.4390603559506016e-02
    x[5,6]    allocateEach[6]  1
    x[5,6]    findWorstP[1,5]  -2.8637692850660479e-02
    x[5,6]    findWorstP[2,5]  -2.0975524168786736e-01
    x[5,6]    findWorstP[3,5]  -9.6822478991596628e-02
    x[5,6]    findWorstP[4,5]  -1.0909043807155255e-01
    x[5,6]    findWorstP[5,1]  1.6861572490630186e-01
    x[5,6]    findWorstP[5,2]  1.6861572490630186e-01
    x[5,6]    findWorstP[5,3]  1.6861572490630186e-01
    x[5,6]    findWorstP[5,4]  1.6861572490630186e-01
    x[5,7]    allocateEach[7]  1
    x[5,7]    findWorstP[1,5]  -1.8840375113441565e-01
    x[5,7]    findWorstP[2,5]  -2.1896657601543992e-01
    x[5,7]    findWorstP[3,5]  -3.9364495798319320e-02
    x[5,7]    findWorstP[4,5]  -1.1403849641201005e-01
    x[5,7]    findWorstP[5,1]  1.9612099862780838e-01
    x[5,7]    findWorstP[5,2]  1.9612099862780838e-01
    x[5,7]    findWorstP[5,3]  1.9612099862780838e-01
    x[5,7]    findWorstP[5,4]  1.9612099862780838e-01
    x[5,8]    allocateEach[8]  1
    x[5,8]    findWorstP[1,5]  -9.8074014318846423e-02
    x[5,8]    findWorstP[2,5]  -1.3382752873059039e-01
    x[5,8]    findWorstP[3,5]  -9.6139705882352919e-02
    x[5,8]    findWorstP[4,5]  -2.2128960389627211e-01
    x[5,8]    findWorstP[5,1]  1.6896389292809306e-02
    x[5,8]    findWorstP[5,2]  1.6896389292809306e-02
    x[5,8]    findWorstP[5,3]  1.6896389292809306e-02
    x[5,8]    findWorstP[5,4]  1.6896389292809306e-02
    MARKER    'MARKER'                 'INTEND'
RHS
    RHS1      allocateEach[1]  1
    RHS1      allocateEach[2]  1
    RHS1      allocateEach[3]  1
    RHS1      allocateEach[4]  1
    RHS1      allocateEach[5]  1
    RHS1      allocateEach[6]  1
    RHS1      allocateEach[7]  1
    RHS1      allocateEach[8]  1
    RHS1      allocateAllCash  1
BOUNDS
 UP BND1      z         1
 MI BND1      cashProportion[1]
 UP BND1      cashProportion[1]  1
 MI BND1      cashProportion[2]
 UP BND1      cashProportion[2]  1
 MI BND1      cashProportion[3]
 UP BND1      cashProportion[3]  1
 MI BND1      cashProportion[4]
 UP BND1      cashProportion[4]  1
 MI BND1      cashProportion[5]
 UP BND1      cashProportion[5]  1
 BV BND1      x[1,1]  
 BV BND1      x[1,2]  
 BV BND1      x[1,3]  
 BV BND1      x[1,4]  
 BV BND1      x[1,5]  
 BV BND1      x[1,6]  
 BV BND1      x[1,7]  
 BV BND1      x[1,8]  
 BV BND1      x[2,1]  
 BV BND1      x[2,2]  
 BV BND1      x[2,3]  
 BV BND1      x[2,4]  
 BV BND1      x[2,5]  
 BV BND1      x[2,6]  
 BV BND1      x[2,7]  
 BV BND1      x[2,8]  
 BV BND1      x[3,1]  
 BV BND1      x[3,2]  
 BV BND1      x[3,3]  
 BV BND1      x[3,4]  
 BV BND1      x[3,5]  
 BV BND1      x[3,6]  
 BV BND1      x[3,7]  
 BV BND1      x[3,8]  
 BV BND1      x[4,1]  
 BV BND1      x[4,2]  
 BV BND1      x[4,3]  
 BV BND1      x[4,4]  
 BV BND1      x[4,5]  
 BV BND1      x[4,6]  
 BV BND1      x[4,7]  
 BV BND1      x[4,8]  
 BV BND1      x[5,1]  
 BV BND1      x[5,2]  
 BV BND1      x[5,3]  
 BV BND1      x[5,4]  
 BV BND1      x[5,5]  
 BV BND1      x[5,6]  
 BV BND1      x[5,7]  
 BV BND1      x[5,8]  
ENDATA
